2
30 5
40
5 1 1
6 1 2
3 1 6
2 1 3
1 1 4
3 1 5
4 1 4
2 1 6
9 1 3
2 1 7
8 1 8
1 1 3
5 1 10
10 1 1
8 1 3
4 1 3
8 1 5
1 1 3
9 1 7
1 1 9
9 1 5
9 1 2
10 1 4
3 1 6
5 1 7
4 1 10
3 1 9
6 1 3
4 1 6
8 1 2
3 1 10
10 1 2
9 1 5
6 1 7
1 1 10
5 1 9
4 1 5
7 1 8
7 1 4
8 1 3
